clingo version 5.6.2
Reading from ...togen_asp_scripts/ijp_expt_cases-44.dl
Solving...
Answer: 1
res(2) witness(6,5,1) witness(6,5,3) witness(3,6,2) number_of_witnesses(3)
SATISFIABLE

Models       : 1+
Calls        : 1
Time         : 210.940s (Solving: 183.87s 1st Model: 183.26s Unsat: 0.00s)
CPU Time     : 2068.487s
Threads      : 64       (Winner: 47)
